(set-logic QF_UF)
(declare-fun A0 () Bool)
(declare-fun A1 () Bool)
(declare-fun A2 () Bool)
(declare-fun A3 () Bool)
(declare-fun A4 () Bool)
(declare-fun A5 () Bool)
(declare-fun A6 () Bool)
(declare-fun A7 () Bool)
(declare-fun A8 () Bool)
(declare-fun A9 () Bool)
(declare-fun A10 () Bool)
(declare-fun A11 () Bool)
(declare-fun A12 () Bool)
(declare-fun A13 () Bool)
(declare-fun A14 () Bool)
(declare-fun A15 () Bool)
(declare-fun A16 () Bool)
(declare-fun A17 () Bool)
(declare-fun A18 () Bool)
(declare-fun A19 () Bool)
(declare-fun A20 () Bool)
(declare-fun A21 () Bool)
(declare-fun A22 () Bool)
(declare-fun A23 () Bool)
(declare-fun A24 () Bool)
(assert (let ((.def_0 (= A1 A21))) (let ((.def_1 (or A24 A2))) (let ((.def_2 (or .def_1 .def_0))) (let ((.def_3 (not .def_2))) (let ((.def_4 (not A17))) (let ((.def_5 (and A15 .def_4))) (let ((.def_6 (not A4))) (let ((.def_7 (or A5 .def_6))) (let ((.def_8 (or .def_7 .def_5))) (let ((.def_9 (not .def_8))) (let ((.def_10 (or .def_9 .def_3))) (let ((.def_11 (not .def_10))) (let ((.def_12 (not A3))) (let ((.def_13 (or .def_6 .def_12))) (let ((.def_14 (not .def_13))) (let ((.def_15 (not A5))) (let ((.def_16 (and A5 .def_15))) (let ((.def_17 (and .def_16 .def_14))) (let ((.def_18 (not A13))) (let ((.def_19 (not A16))) (let ((.def_20 (or .def_19 .def_18))) (let ((.def_21 (not .def_20))) (let ((.def_22 (and A20 A13))) (let ((.def_23 (not .def_22))) (let ((.def_24 (= .def_23 .def_21))) (let ((.def_25 (and .def_24 .def_17))) (let ((.def_26 (= .def_25 .def_11))) (let ((.def_27 (not .def_26))) (let ((.def_28 (not A14))) (let ((.def_29 (not A23))) (let ((.def_30 (and .def_29 .def_28))) (let ((.def_31 (not A0))) (let ((.def_32 (or .def_31 A16))) (let ((.def_33 (not .def_32))) (let ((.def_34 (or .def_33 .def_30))) (let ((.def_35 (not A10))) (let ((.def_36 (= .def_35 A11))) (let ((.def_37 (not .def_36))) (let ((.def_38 (and A22 A11))) (let ((.def_39 (not .def_38))) (let ((.def_40 (or .def_39 .def_37))) (let ((.def_41 (not .def_40))) (let ((.def_42 (or .def_41 .def_34))) (let ((.def_43 (not A6))) (let ((.def_44 (= .def_43 A2))) (let ((.def_45 (not A12))) (let ((.def_46 (and .def_29 .def_45))) (let ((.def_47 (and .def_46 .def_44))) (let ((.def_48 (not A1))) (let ((.def_49 (not A9))) (let ((.def_50 (or .def_49 .def_48))) (let ((.def_51 (not .def_50))) (let ((.def_52 (or A20 .def_48))) (let ((.def_53 (and .def_52 .def_51))) (let ((.def_54 (or .def_53 .def_47))) (let ((.def_55 (not .def_54))) (let ((.def_56 (and .def_55 .def_42))) (let ((.def_57 (not .def_56))) (let ((.def_58 (or .def_57 .def_27))) (let ((.def_59 (not .def_58))) (let ((.def_60 (not A2))) (let ((.def_61 (and A7 .def_60))) (let ((.def_62 (or A9 A16))) (let ((.def_63 (not .def_62))) (let ((.def_64 (or .def_63 .def_61))) (let ((.def_65 (and A14 .def_49))) (let ((.def_66 (and A4 A23))) (let ((.def_67 (not .def_66))) (let ((.def_68 (and .def_67 .def_65))) (let ((.def_69 (or .def_68 .def_64))) (let ((.def_70 (not .def_69))) (let ((.def_71 (or .def_43 A13))) (let ((.def_72 (not .def_71))) (let ((.def_73 (and A18 A22))) (let ((.def_74 (or .def_73 .def_72))) (let ((.def_75 (or A10 A17))) (let ((.def_76 (not .def_75))) (let ((.def_77 (not A20))) (let ((.def_78 (or .def_77 A20))) (let ((.def_79 (or .def_78 .def_76))) (let ((.def_80 (and .def_79 .def_74))) (let ((.def_81 (not .def_80))) (let ((.def_82 (and .def_81 .def_70))) (let ((.def_83 (not .def_82))) (let ((.def_84 (not A7))) (let ((.def_85 (or .def_84 A24))) (let ((.def_86 (or .def_77 A7))) (let ((.def_87 (not .def_86))) (let ((.def_88 (= .def_87 .def_85))) (let ((.def_89 (= .def_60 A20))) (let ((.def_90 (not .def_89))) (let ((.def_91 (not A11))) (let ((.def_92 (or A13 .def_91))) (let ((.def_93 (or .def_92 .def_90))) (let ((.def_94 (and .def_93 .def_88))) (let ((.def_95 (not A8))) (let ((.def_96 (not A21))) (let ((.def_97 (and .def_96 .def_95))) (let ((.def_98 (or A1 A24))) (let ((.def_99 (not .def_98))) (let ((.def_100 (or .def_99 .def_97))) (let ((.def_101 (not A19))) (let ((.def_102 (and .def_101 .def_49))) (let ((.def_103 (not .def_102))) (let ((.def_104 (not A22))) (let ((.def_105 (and .def_104 A13))) (let ((.def_106 (not .def_105))) (let ((.def_107 (or .def_106 .def_103))) (let ((.def_108 (or .def_107 .def_100))) (let ((.def_109 (and .def_108 .def_94))) (let ((.def_110 (and .def_109 .def_83))) (let ((.def_111 (not .def_110))) (let ((.def_112 (and .def_111 .def_59))) (let ((.def_113 (or A2 A15))) (let ((.def_114 (not .def_113))) (let ((.def_115 (not A24))) (let ((.def_116 (and .def_115 A17))) (let ((.def_117 (and .def_116 .def_114))) (let ((.def_118 (not .def_117))) (let ((.def_119 (or .def_43 A5))) (let ((.def_120 (not .def_119))) (let ((.def_121 (or .def_6 A13))) (let ((.def_122 (not .def_121))) (let ((.def_123 (and .def_122 .def_120))) (let ((.def_124 (not .def_123))) (let ((.def_125 (and .def_124 .def_118))) (let ((.def_126 (not .def_125))) (let ((.def_127 (= A16 .def_60))) (let ((.def_128 (not .def_127))) (let ((.def_129 (= .def_49 A14))) (let ((.def_130 (not .def_129))) (let ((.def_131 (or .def_130 .def_128))) (let ((.def_132 (and A22 A9))) (let ((.def_133 (and .def_12 .def_12))) (let ((.def_134 (not .def_133))) (let ((.def_135 (= .def_134 .def_132))) (let ((.def_136 (= .def_135 .def_131))) (let ((.def_137 (or .def_136 .def_126))) (let ((.def_138 (or A21 A2))) (let ((.def_139 (and A12 .def_31))) (let ((.def_140 (not .def_139))) (let ((.def_141 (and .def_140 .def_138))) (let ((.def_142 (not A15))) (let ((.def_143 (and .def_142 A9))) (let ((.def_144 (not .def_143))) (let ((.def_145 (or A19 .def_142))) (let ((.def_146 (and .def_145 .def_144))) (let ((.def_147 (not .def_146))) (let ((.def_148 (and .def_147 .def_141))) (let ((.def_149 (not .def_148))) (let ((.def_150 (or A14 A22))) (let ((.def_151 (not .def_150))) (let ((.def_152 (and A0 .def_104))) (let ((.def_153 (not .def_152))) (let ((.def_154 (and .def_153 .def_151))) (let ((.def_155 (not .def_154))) (let ((.def_156 (or A4 .def_101))) (let ((.def_157 (not .def_156))) (let ((.def_158 (not A18))) (let ((.def_159 (and .def_84 .def_158))) (let ((.def_160 (or .def_159 .def_157))) (let ((.def_161 (and .def_160 .def_155))) (let ((.def_162 (not .def_161))) (let ((.def_163 (and .def_162 .def_149))) (let ((.def_164 (not .def_163))) (let ((.def_165 (or .def_164 .def_137))) (let ((.def_166 (not .def_165))) (let ((.def_167 (or A0 A11))) (let ((.def_168 (not .def_167))) (let ((.def_169 (and A9 .def_77))) (let ((.def_170 (and .def_169 .def_168))) (let ((.def_171 (and A23 A13))) (let ((.def_172 (not .def_171))) (let ((.def_173 (or .def_43 .def_18))) (let ((.def_174 (not .def_173))) (let ((.def_175 (or .def_174 .def_172))) (let ((.def_176 (not .def_175))) (let ((.def_177 (or .def_176 .def_170))) (let ((.def_178 (and .def_12 .def_104))) (let ((.def_179 (and .def_96 A1))) (let ((.def_180 (or .def_179 .def_178))) (let ((.def_181 (or .def_31 .def_158))) (let ((.def_182 (not .def_181))) (let ((.def_183 (or A2 A2))) (let ((.def_184 (not .def_183))) (let ((.def_185 (and .def_184 .def_182))) (let ((.def_186 (not .def_185))) (let ((.def_187 (and .def_186 .def_180))) (let ((.def_188 (not .def_187))) (let ((.def_189 (and .def_188 .def_177))) (let ((.def_190 (not .def_189))) (let ((.def_191 (and .def_84 .def_77))) (let ((.def_192 (not .def_191))) (let ((.def_193 (and .def_142 A19))) (let ((.def_194 (and .def_193 .def_192))) (let ((.def_195 (or A10 A7))) (let ((.def_196 (= A13 .def_12))) (let ((.def_197 (not .def_196))) (let ((.def_198 (and .def_197 .def_195))) (let ((.def_199 (and .def_198 .def_194))) (let ((.def_200 (not .def_199))) (let ((.def_201 (= A15 .def_158))) (let ((.def_202 (not .def_201))) (let ((.def_203 (and A18 .def_115))) (let ((.def_204 (and .def_203 .def_202))) (let ((.def_205 (not .def_204))) (let ((.def_206 (and .def_91 .def_142))) (let ((.def_207 (not .def_206))) (let ((.def_208 (and .def_43 A10))) (let ((.def_209 (not .def_208))) (let ((.def_210 (or .def_209 .def_207))) (let ((.def_211 (not .def_210))) (let ((.def_212 (or .def_211 .def_205))) (let ((.def_213 (or .def_212 .def_200))) (let ((.def_214 (and .def_213 .def_190))) (let ((.def_215 (not .def_214))) (let ((.def_216 (and .def_215 .def_166))) (let ((.def_217 (not .def_216))) (let ((.def_218 (or .def_217 .def_112))) (let ((.def_219 (not .def_218))) (let ((.def_220 (and .def_142 A8))) (let ((.def_221 (and A11 A4))) (let ((.def_222 (or .def_221 .def_220))) (let ((.def_223 (and A3 .def_91))) (let ((.def_224 (not .def_223))) (let ((.def_225 (or .def_45 A14))) (let ((.def_226 (and .def_225 .def_224))) (let ((.def_227 (not .def_226))) (let ((.def_228 (and .def_227 .def_222))) (let ((.def_229 (= .def_19 .def_60))) (let ((.def_230 (not .def_229))) (let ((.def_231 (and A1 A17))) (let ((.def_232 (not .def_231))) (let ((.def_233 (and .def_232 .def_230))) (let ((.def_234 (not .def_233))) (let ((.def_235 (or A20 A16))) (let ((.def_236 (and A17 .def_84))) (let ((.def_237 (and .def_236 .def_235))) (let ((.def_238 (not .def_237))) (let ((.def_239 (and .def_238 .def_234))) (let ((.def_240 (= .def_239 .def_228))) (let ((.def_241 (and A15 A20))) (let ((.def_242 (or A16 .def_77))) (let ((.def_243 (and .def_242 .def_241))) (let ((.def_244 (not .def_243))) (let ((.def_245 (and .def_15 A11))) (let ((.def_246 (not .def_245))) (let ((.def_247 (or .def_104 A2))) (let ((.def_248 (or .def_247 .def_246))) (let ((.def_249 (not .def_248))) (let ((.def_250 (and .def_249 .def_244))) (let ((.def_251 (or A1 A19))) (let ((.def_252 (not .def_251))) (let ((.def_253 (or .def_77 .def_45))) (let ((.def_254 (= .def_253 .def_252))) (let ((.def_255 (not .def_254))) (let ((.def_256 (and .def_158 A13))) (let ((.def_257 (not .def_256))) (let ((.def_258 (and A22 .def_96))) (let ((.def_259 (not .def_258))) (let ((.def_260 (or .def_259 .def_257))) (let ((.def_261 (not .def_260))) (let ((.def_262 (= .def_261 .def_255))) (let ((.def_263 (not .def_262))) (let ((.def_264 (and .def_263 .def_250))) (let ((.def_265 (not .def_264))) (let ((.def_266 (or .def_265 .def_240))) (let ((.def_267 (and .def_115 .def_18))) (let ((.def_268 (or .def_142 .def_19))) (let ((.def_269 (not .def_268))) (let ((.def_270 (or .def_269 .def_267))) (let ((.def_271 (or .def_18 .def_6))) (let ((.def_272 (and .def_29 A23))) (let ((.def_273 (or .def_272 .def_271))) (let ((.def_274 (not .def_273))) (let ((.def_275 (= .def_274 .def_270))) (let ((.def_276 (not .def_275))) (let ((.def_277 (and .def_84 A17))) (let ((.def_278 (and A0 .def_43))) (let ((.def_279 (or .def_278 .def_277))) (let ((.def_280 (= .def_19 A24))) (let ((.def_281 (or .def_104 A5))) (let ((.def_282 (and .def_281 .def_280))) (let ((.def_283 (or .def_282 .def_279))) (let ((.def_284 (not .def_283))) (let ((.def_285 (and .def_284 .def_276))) (let ((.def_286 (or A1 .def_48))) (let ((.def_287 (and .def_104 .def_142))) (let ((.def_288 (or .def_287 .def_286))) (let ((.def_289 (not .def_288))) (let ((.def_290 (= A16 .def_77))) (let ((.def_291 (and A23 A9))) (let ((.def_292 (and .def_291 .def_290))) (let ((.def_293 (not .def_292))) (let ((.def_294 (and .def_293 .def_289))) (let ((.def_295 (not .def_294))) (let ((.def_296 (or .def_60 A24))) (let ((.def_297 (not .def_296))) (let ((.def_298 (= .def_77 .def_19))) (let ((.def_299 (not .def_298))) (let ((.def_300 (and .def_299 .def_297))) (let ((.def_301 (and .def_35 .def_77))) (let ((.def_302 (not .def_301))) (let ((.def_303 (not .def_277))) (let ((.def_304 (and .def_303 .def_302))) (let ((.def_305 (or .def_304 .def_300))) (let ((.def_306 (or .def_305 .def_295))) (let ((.def_307 (= .def_306 .def_285))) (let ((.def_308 (not .def_307))) (let ((.def_309 (and .def_308 .def_266))) (let ((.def_310 (not .def_309))) (let ((.def_311 (or A15 .def_101))) (let ((.def_312 (not .def_311))) (let ((.def_313 (or A21 A0))) (let ((.def_314 (= .def_313 .def_312))) (let ((.def_315 (and A2 .def_18))) (let ((.def_316 (or .def_60 .def_43))) (let ((.def_317 (not .def_316))) (let ((.def_318 (and .def_317 .def_315))) (let ((.def_319 (or .def_318 .def_314))) (let ((.def_320 (and A19 A12))) (let ((.def_321 (not .def_320))) (let ((.def_322 (or A12 A21))) (let ((.def_323 (not .def_322))) (let ((.def_324 (and .def_323 .def_321))) (let ((.def_325 (not .def_324))) (let ((.def_326 (or .def_48 .def_18))) (let ((.def_327 (and .def_95 A20))) (let ((.def_328 (not .def_327))) (let ((.def_329 (and .def_328 .def_326))) (let ((.def_330 (or .def_329 .def_325))) (let ((.def_331 (and .def_330 .def_319))) (let ((.def_332 (not .def_331))) (let ((.def_333 (or .def_45 A20))) (let ((.def_334 (or A10 A9))) (let ((.def_335 (not .def_334))) (let ((.def_336 (and .def_335 .def_333))) (let ((.def_337 (and A3 A10))) (let ((.def_338 (or A9 A20))) (let ((.def_339 (and .def_338 .def_337))) (let ((.def_340 (or .def_339 .def_336))) (let ((.def_341 (not .def_340))) (let ((.def_342 (or .def_28 A2))) (let ((.def_343 (not .def_342))) (let ((.def_344 (or A6 A8))) (let ((.def_345 (not .def_344))) (let ((.def_346 (or .def_345 .def_343))) (let ((.def_347 (and .def_60 A17))) (let ((.def_348 (and A16 A3))) (let ((.def_349 (or .def_348 .def_347))) (let ((.def_350 (or .def_349 .def_346))) (let ((.def_351 (= .def_350 .def_341))) (let ((.def_352 (not .def_351))) (let ((.def_353 (and .def_352 .def_332))) (let ((.def_354 (or A7 .def_4))) (let ((.def_355 (and .def_43 .def_158))) (let ((.def_356 (not .def_355))) (let ((.def_357 (or .def_356 .def_354))) (let ((.def_358 (not .def_357))) (let ((.def_359 (= .def_77 .def_35))) (let ((.def_360 (and A24 .def_45))) (let ((.def_361 (not .def_360))) (let ((.def_362 (or .def_361 .def_359))) (let ((.def_363 (not .def_362))) (let ((.def_364 (and .def_363 .def_358))) (let ((.def_365 (not .def_364))) (let ((.def_366 (and .def_91 A10))) (let ((.def_367 (not .def_366))) (let ((.def_368 (and .def_120 .def_367))) (let ((.def_369 (not .def_368))) (let ((.def_370 (and .def_91 .def_31))) (let ((.def_371 (and A22 .def_28))) (let ((.def_372 (not .def_371))) (let ((.def_373 (and .def_372 .def_370))) (let ((.def_374 (and .def_373 .def_369))) (let ((.def_375 (or .def_374 .def_365))) (let ((.def_376 (not .def_375))) (let ((.def_377 (and .def_31 .def_49))) (let ((.def_378 (not .def_377))) (let ((.def_379 (and .def_96 .def_4))) (let ((.def_380 (and .def_379 .def_378))) (let ((.def_381 (and A18 .def_104))) (let ((.def_382 (and .def_4 .def_12))) (let ((.def_383 (not .def_382))) (let ((.def_384 (or .def_383 .def_381))) (let ((.def_385 (not .def_384))) (let ((.def_386 (and .def_385 .def_380))) (let ((.def_387 (or .def_45 .def_95))) (let ((.def_388 (not .def_387))) (let ((.def_389 (or .def_35 .def_60))) (let ((.def_390 (and .def_389 .def_388))) (let ((.def_391 (not .def_390))) (let ((.def_392 (not .def_337))) (let ((.def_393 (and A24 A15))) (let ((.def_394 (not .def_393))) (let ((.def_395 (or .def_394 .def_392))) (let ((.def_396 (and .def_395 .def_391))) (let ((.def_397 (and .def_396 .def_386))) (let ((.def_398 (or .def_397 .def_376))) (let ((.def_399 (not .def_398))) (let ((.def_400 (and .def_399 .def_353))) (let ((.def_401 (not .def_400))) (let ((.def_402 (and .def_401 .def_310))) (let ((.def_403 (not .def_402))) (let ((.def_404 (and .def_403 .def_219))) (let ((.def_405 (not .def_404))) .def_405)))))))))))))))))))))))))))))))))))))))))))))))))))))))))))))))))))))))))))))))))))))))))))))))))))))))))))))))))))))))))))))))))))))))))))))))))))))))))))))))))))))))))))))))))))))))))))))))))))))))))))))))))))))))))))))))))))))))))))))))))))))))))))))))))))))))))))))))))))))))))))))))))))))))))))))))))))))))))))))))))))))))))))))))))))))))))))))))))))))))))))))))))))))))))))))))))))))))))))))))))))))))
(check-sat)
